%%% static parameters %%%
timespan = 1;
Fact = [2];
Distr1 = [5];
Distr2 = [10];
Clients_N = [120];
Demand_W = [15];
Lt0 = [4];
Lt1 = [4];
SS_ = [0.85];
DS_D = [5];
K = [200];
MA = [500];
%%% dynamic parameters %%%
lost_ratio_sales_ret_th = 0.2098058820578328;
lost_ratio_sales_ret_w = 37;
lost_ratio_sales_dis_th = 0.9571303967961179;
lost_ratio_sales_dis_w = 53;
lost_ratio_sales_fac_th = 0.296507159050736;
lost_ratio_sales_fac_w = 68;
stock_customer_MA_mean_relative_th = 0.7812077777110055;
stock_customer_MA_mean_relative_w = 39;
stock_distributor_MA_mean_relative_th = 0.5913904918192397;
stock_distributor_MA_mean_relative_w = 62;
stock_retailer_MA_mean_relative_th = 0.3020169167737069;
stock_retailer_MA_mean_relative_w = 26;
stock_factory_MA_mean_relative_th = 0.7542223079348133;
stock_factory_MA_mean_relative_w = 80;
